letting n =  10
letting blocks =  [[1, 7], [1, 8], [2, 4], [2, 7], [3, 2], [3, 6], [3, 10], [5, 1], [5, 4], [5, 8], [6, 1], [6, 6], [7, 1], [7, 4], [7, 8], [7, 10], [8, 1], [8, 5], [9, 7], [9, 10], [10, 5], [10, 8]]
